37
Cu(en)3
 Cu     -0.000571968      0.0005701051      -0.0055137495
 C     0.5528891438      -2.8425874799      0.7522020604
 C     0.6452627555      -2.8258957877      -0.7572589585
 H     -1.339820679      -2.046303497      1.0563890753
 H     -0.2694822522      -1.5761541709      2.1807777369
 H     2.0499733244      -1.329823727      -1.0707978848
 H     0.8766080672      -1.338499424      -2.1909489997
 H     0.1862376293      -3.8066635055      1.1152743977
 H     1.5254969023      -2.6654457085      1.2153800494
 H     -0.3147294749      -3.0624987967      -1.2201625875
 H     1.3734358157      -3.5581958962      -1.116782588
 N     -0.3726924322      -1.7419743886      1.1784464604
 N     1.042078303      -1.445310355      -1.1888533637
 N     1.6943540124      0.5474252503      1.1789803265
 C     2.1875007648      1.8982900998      0.7528144068
 C     2.1265430211      1.9701222303      -0.7566338821
 H     2.8096007481      1.2554810902      -1.2198998622
 H     2.3987299632      2.966258334      -1.1163489065
 N     0.7314687751      1.626746922      -1.1875556438
 N     -1.3224083417      1.1956564357      1.1776272334
 C     -2.7386738184      0.9443431808      0.7525178723
 C     -2.7710582304      0.8545978769      -0.7568346124
 H     -2.4951200838      1.8035475333      -1.2207632341
 H     -3.7696558536      0.5906214548      -1.1158274556
 N     -1.7748771888      -0.1807285542      -1.1874497578
 H     -2.1795250891      -1.110778482      -1.0673322392
 H     -1.600377747      -0.0927954295      -2.1898405012
 H     -3.389880984      1.7443842591      1.115225639
 H     -3.0713665173      0.0138571143      1.2166208063
 H     -1.1020918278      2.185082042      1.053488443
 H     -1.2298554047      1.0251210942      2.1802052093
 H     0.1292956906      2.4429428096      -1.0677980936
 H     0.7203516743      1.4315009908      -2.1899170256
 H     3.2061776639      2.0606952447      1.1155758761
 H     1.5493462238      2.6533285388      1.2160605182
 H     2.4403011162      -0.1394030328      1.0576026304
 H     1.4982403181      0.554529219      2.1811162045
